StudentsNr = 10;
InstructorsNr = 51;
DaysNr = 1;
SlotsPerDay = 40;
AvailabilitySlotsLenght = 5;
RoomNr = 1;
ProgrammNr = 1;
DegreeNr = 3;
RolesNr = 2;
CoursesNr = 7;
InstructorsProgramm = [{1}, {1}, {1}, {1}, {1}, {1}, {1}, {1}, {1}, {1}, {1}, {1}, {1}, {1}, {1}, {1}, {1}, {1}, {1}, {1}, {1}, {1}, {1}, {1}, {1}, {1}, {1}, {1}, {1}, {1}, {1}, {1}, {1}, {1}, {1}, {1}, {1}, {1}, {1}, {1}, {1}, {1}, {1}, {1}, {1}, {1}, {1}, {1}, {1}, {1}, {1}];
InstructorRolesPerProgramm = [|{2, 5, 8, 10, 11, 17, 18, 19, 23, 24, 26, 28, 30, 31, 33, 36, 37, 41, 43, 44, 48}, {1, 2, 3, 5, 7, 9, 10, 12, 17, 22, 24, 26, 27, 33, 35, 37, 42, 43, 45, 46, 48, 49, 51}|];
InstructorsAvailability = [|1, 0, 0, 0, 1, 1, 1, 1, |0, 1, 0, 1, 1, 1, 1, 0, |1, 1, 1, 1, 1, 1, 1, 1, |1, 1, 1, 1, 1, 1, 0, 0, |1, 1, 1, 1, 1, 0, 1, 0, |0, 0, 1, 1, 0, 0, 1, 1, |1, 1, 1, 1, 1, 1, 1, 1, |0, 1, 1, 1, 1, 1, 1, 1, |0, 1, 0, 1, 1, 1, 1, 1, |1, 1, 0, 0, 1, 1, 1, 1, |1, 1, 1, 1, 1, 1, 1, 1, |0, 1, 1, 1, 1, 1, 0, 0, |0, 0, 0, 0, 1, 1, 1, 1, |0, 1, 1, 0, 0, 1, 0, 0, |1, 1, 1, 1, 1, 1, 1, 1, |1, 1, 1, 1, 1, 0, 1, 1, |1, 1, 1, 1, 0, 0, 0, 1, |0, 0, 1, 1, 1, 1, 1, 0, |1, 1, 1, 1, 0, 1, 1, 1, |1, 1, 1, 1, 1, 1, 1, 1, |0, 0, 0, 0, 0, 0, 1, 1, |0, 0, 1, 1, 1, 1, 1, 1, |0, 1, 0, 0, 1, 1, 1, 0, |1, 1, 1, 1, 1, 1, 1, 0, |1, 1, 1, 0, 1, 1, 1, 0, |1, 1, 1, 1, 1, 1, 1, 1, |1, 1, 1, 1, 0, 1, 1, 0, |0, 0, 1, 1, 1, 1, 1, 0, |1, 1, 1, 1, 1, 1, 1, 1, |0, 1, 1, 1, 1, 1, 1, 1, |0, 1, 1, 1, 1, 1, 1, 1, |0, 0, 0, 1, 1, 1, 1, 1, |1, 1, 1, 1, 1, 1, 1, 1, |0, 1, 1, 1, 1, 1, 1, 1, |1, 1, 1, 1, 0, 0, 1, 1, |0, 0, 1, 1, 1, 1, 1, 1, |1, 1, 0, 0, 0, 1, 1, 1, |0, 0, 0, 0, 0, 1, 1, 1, |0, 1, 1, 0, 0, 0, 1, 1, |1, 1, 0, 1, 0, 0, 1, 1, |0, 1, 1, 1, 1, 0, 1, 1, |1, 1, 0, 1, 1, 1, 1, 1, |1, 1, 1, 1, 1, 1, 1, 1, |1, 1, 1, 1, 1, 1, 1, 0, |0, 1, 1, 1, 1, 1, 1, 1, |1, 1, 1, 1, 1, 1, 1, 1, |0, 0, 1, 1, 1, 1, 1, 1, |1, 1, 1, 1, 0, 1, 1, 1, |0, 0, 1, 1, 1, 0, 0, 1, |0, 0, 0, 0, 0, 0, 1, 1, |0, 1, 0, 0, 0, 0, 1, 1|];
StudentsProgramm = [1, 1, 1, 1, 1, 1, 1, 1, 1, 1];
StudentsDegree = [3, 1, 3, 3, 3, 3, 3, 2, 1, 3];
StudentsSupervisorId = [47, 11, 32, 51, 35, 6, 1, 20, 11, 32];
StudentsCourseIds = [{}, {1, 2, 4}, {}, {}, {}, {}, {}, {4}, {2, 4, 7}, {}];
StudentsAvailability = [|0, 0, 1, 1, 1, 0, 0, 1, |0, 0, 0, 0, 1, 0, 0, 1, |0, 0, 0, 0, 1, 1, 1, 1, |1, 1, 1, 1, 1, 1, 0, 0, |1, 1, 1, 1, 1, 1, 1, 1, |1, 1, 1, 0, 0, 1, 1, 1, |0, 1, 1, 1, 1, 1, 1, 1, |1, 1, 0, 0, 1, 1, 1, 0, |1, 1, 1, 1, 1, 1, 0, 0, |1, 1, 1, 0, 1, 1, 1, 0|];
TheoryticalMinCard = [1, 0, 1, 0, 0, 1, 0, 1, 0, 1];
CoursesInstructorIds = [{8, 14, 15, 21, 25, 31, 33, 34, 36, 47}, {1, 2, 3, 4, 5, 6, 7, 8, 13, 14, 16, 17, 22, 24, 26, 27, 28, 32, 36, 37, 38, 39, 40, 41, 42, 44, 45, 46, 49, 51}, {20, 27, 32, 34, 35, 36, 37, 44, 47}, {1, 2, 4, 5, 6, 8, 9, 10, 11, 13, 14, 15, 17, 21, 22, 23, 25, 27, 28, 32, 35, 37, 41, 42, 48, 49}, {2, 4, 7, 9, 14, 15, 17, 18, 19, 27, 28, 30, 35, 36, 37, 38, 39, 41, 42, 44, 46, 50, 51}, {2, 7, 10, 12, 16, 19, 20, 21, 27, 29, 31, 34, 37, 40, 42, 43, 44, 45, 46, 48, 49, 50}, {4, 9, 37, 43, 45, 47, 48, 51}];
RolesDemands = [13, 15];
RolesContinuity = [];
ExamLen = [1, 2, 1, 1, 1, 1, 1, 1, 2, 1];
LunchTsMinLen = 1;
LunchStarts = [13..30];
SupervisorAvailable = 0;
OptimalLunchLenght = [3, 1];
OptimalStartTs = [1, 0];
OptimalFinishTs = [1, 40];
MinimizeRooms = 100;
RolesSoftContinuity = [|1, 2|2, 0|];
SameDegreeInRoom = 0;
Mergeability = 1;
